time,e_yy,stress_yy
0,0,0
0.05,4.7620310216997e-05,7.0179417347705
0.075,7.143141224903e-05,10.527456737264
0.1,9.524314554129e-05,14.037334523455
0.1125,0.00010714924890482,15.792409465254
0.1375,0.0001309619290563,19.302831468914
0.1625,0.00015477524042653,22.813616305581
0.1875,0.00017858918299893,26.324763958532
0.2125,0.00020240375675697,29.836274350634
0.2375,0.00022621896168423,33.348147198665
0.25,0.00023812680083129,35.104219241323
0.275,0.00026194295248233,38.616634229266
0.3,0.00028575973526402,42.12940722982
0.325,0.00030957714916353,45.64253316778
0.35,0.00033339519417204,49.156002246836
0.375,0.00035721387028804,52.669796770304
0.4,0.00038103317752298,56.183886083451
0.425,0.00040485311591021,59.698218868075
0.45,0.00042867368551916,63.212711911109
0.475,0.00045249488647664,66.727234076807
0.5,0.00047631671899865,70.24158391932
0.525,0.00050013918343597,73.755458911931
0.55,0.00052396228033851,77.268414414599
0.575,0.00054778601054343,80.779809902068
0.6,0.00057161037529308,84.288740439034
0.625,0.00059543537638798,87.793951578595
0.65,0.00061926101637964,91.29373707066
0.675,0.0006430872988054,94.785820456551
0.7,0.00066691422846446,98.267224363845
0.725,0.00069074181172925,101.73413476832
0.75,0.00071457005688027,105.18177180535
0.775,0.00073839897444559,108.60428304868
0.8,0.00076222857751787,111.99467879197
0.825,0.00078605888201585,115.34483011014
0.85,0.00080988990685322,118.64554826396
0.875,0.00083372167398021,121.88675721719
0.9,0.00085755420827249,125.05776018446
0.925,0.00088138753725647,128.147588391
0.95,0.00090522169067897,131.14540781526
0.975,0.00092905669994621,134.04095062871
1,0.00095289259747014,136.82493368451
1.025,0.00097672941596732,139.48942762636
1.05,0.0010005671877548,142.02814623604
1.075,0.0010244059440846,144.43663513745
1.1,0.0010482457145499,146.71235094722
1.125,0.0010720865265892,148.85463386593
1.15,0.0010959284051035,150.86458682027
1.175,0.0011197713721966,152.74488175586
1.2,0.0011436154470375,154.49951712723
1.225,0.0011674606458399,156.13355110567
1.25,0.0011913069819452,157.65283212697
1.275,0.0012151544659913,159.06374425479
1.3,0.0012390031061482,160.37297928359
1.325,0.0012628529083953,161.58734265513
1.35,0.0012867038768218,162.71359564828
1.375,0.0013105560139294,163.75833298151
1.4,0.0013344093209231,164.72789276356
1.425,0.0013582637979776,165.62829440875
1.45,0.0013821194444727,166.46519969497
1.475,0.0014059762591951,167.24389227281
1.5,0.0014298342405039,167.96927137903
1.525,0.0014536933864638,168.64585607492
1.55,0.0014775536949478,169.27779704911
1.575,0.0015014151637147,169.86889354603
1.6,0.0015252777904646,170.42261354574
1.625,0.001549141572879,170.94211574434
1.65,0.0015730065086482,171.43027221634
1.675,0.0015968725954901,171.88969103894
1.7,0.0016207398311639,172.32273823682
1.725,0.0016446082134815,172.73155874387
1.75,0.0016684777403154,173.11809614352
1.775,0.0016923484096084,173.48411107669
1.8,0.0017162202193805,173.83119828976
1.825,0.0017400931677381,174.1608023151
1.85,0.0017639672528808,174.47423186394
1.875,0.0017878424731097,174.77267296359
1.9,0.0018117188268341,175.05720093456
1.925,0.0018355963125775,175.32879128469
1.95,0.0018594749289829,175.58832960107
1.975,0.0018833546748162,175.83662052687
2,0.0019072355489686,176.07439589785
2.025,0.001931117550457,176.30232211447
2.05,0.0019550006784227,176.52100681725
2.075,0.0019788849321282,176.73100492629
2.1,0.0020027703109522,176.93282410527
2.125,0.002026656814383,177.12692968518
2.15,0.0020505444420104,177.31374911218
2.175,0.0020744331935165,177.49367594138
2.2,0.0020983230686654,177.66707341955
2.225,0.0021222140672927,177.83427768778
2.25,0.0021461061892947,177.99560063482
2.275,0.0021699994346175,178.15133242936
2.3,0.0021938938032466,178.30174376004
2.325,0.0022177892951971,178.44708780799
2.35,0.0022416859105048,178.58760198554
2.375,0.0022655836492178,178.72350944809
2.4,0.002289482511389,178.85502042701
2.425,0.0023133824970701,178.98233338761
2.45,0.0023372836063054,179.1056360401
2.475,0.0023611858391277,179.22510622171
2.5,0.0023850891955541,179.34091266677
2.525,0.0024089936755826,179.45321568057
2.55,0.0024328992791901,179.56216773021
2.575,0.0024568060063297,179.66791396502
2.6,0.0024807138569298,179.77059267642
2.625,0.0025046228308929,179.87033570674
2.65,0.0025285329280949,179.9672688145
2.675,0.0025524441483849,180.06151200306
2.7,0.0025763564915853,180.15317981811
2.725,0.0026002699574919,180.24238161901
2.7375,0.0026122271016079,180.2871828441
2.75,0.0026241845270211,180.33131389997
2.7625,0.0026361422336293,180.37479530036
2.775,0.0026481002213355,180.41764650535
2.7875,0.0026600584900475,180.45988600457
2.8,0.0026720170396776,180.50153139057
2.8125,0.0026839758701409,180.5425994345
2.825,0.0026959349813567,180.5831061294
2.8375,0.0027078943732459,180.62306676643
2.85,0.0027198540457323,180.66249597143
2.8625,0.0027318139987414,180.70140775507
2.875,0.0027437742322002,180.73981555358
2.8875,0.0027557347460372,180.77773226627
2.9,0.0027676955401821,180.81517028985
2.9125,0.0027796566145655,180.85214154972
2.925,0.0027916179691185,180.88865752841
2.9375,0.0028035796037731,180.92472929179
2.95,0.0028155415184616,180.9603675129
2.9625,0.0028275037131167,180.99558249387
2.975,0.0028394661876714,181.03038418624
2.9875,0.0028514289420587,181.0647822093
3,0.0028633919762117,181.09878586732
3.0125,0.0028753552900636,181.13240416531
3.025,0.0028873188835475,181.16564582358
3.0375,0.0028992827565964,181.1985192913
3.05,0.0029112469091432,181.23103275901
3.0625,0.0029232113411204,181.26319417031
3.075,0.0029351760524607,181.29501123268
3.0875,0.0029471410430963,181.32649142762
3.1,0.0029591063129591,181.35764202012
3.1125,0.0029710718619808,181.38847006746
3.125,0.002983037690093,181.41898242747
3.1375,0.0029950037972269,181.44918576652
3.15,0.0030069701833132,181.47908656656
3.1625,0.0030189368482826,181.50869113221
3.175,0.0030309037920654,181.53800559717
3.1875,0.0030428710145916,181.56703593042
3.2,0.003054838515791,181.59578794201
3.2125,0.0030668062955929,181.62426728856
3.225,0.0030787743539266,181.65247947855
3.2375,0.0030907426907208,181.68042987719
3.25,0.0031027113059043,181.70812371125
3.2625,0.0031146801994053,181.73556607353
3.275,0.003126649371152,181.76276192715
3.2875,0.0031386188210722,181.78971610969
3.3,0.0031505885490935,181.81643333708
3.3125,0.0031625585551433,181.8429182074
3.325,0.0031745288391488,181.86917520446
3.3375,0.003186499401037,181.89520870126
3.35,0.0031984702407346,181.92102296333
3.3625,0.0032104413581681,181.94662215188
3.375,0.0032224127532641,181.97201032695
3.3875,0.0032343844259487,181.99719145028
3.4,0.003246356376148,182.02216938814
3.4125,0.0032583286037879,182.0469479142
3.425,0.0032703011087942,182.07153071206
3.4375,0.0032822738910926,182.09592137783
3.45,0.0032942469506086,182.12012342262
3.4625,0.0033062202872676,182.14414027491
3.475,0.0033181939009949,182.16797528282
3.4875,0.0033301677917158,182.1916317164
3.5,0.0033421419593553,182.21511276973
3.5125,0.0033541164038385,182.23842156319
3.525,0.0033660911250904,182.26156114501
3.5375,0.003378066123036,182.28453449369
3.55,0.0033900413975999,182.30734451971
3.5625,0.0034020169487072,182.32999406639
3.575,0.0034139927762824,182.35248591524
3.5875,0.0034259688802505,182.37482278289
3.6,0.0034379452605359,182.39700732566
3.6125,0.0034499219170635,182.41904214045
3.625,0.0034618988497578,182.44092976639
3.6375,0.0034738760585436,182.46267268633
3.65,0.0034858535433454,182.48427332835
3.6625,0.0034978313040879,182.50573406714
3.675,0.0035098093406957,182.52705722549
3.6875,0.0035217876530935,182.54824507556
3.7,0.003533766241206,182.56929984019
3.7125,0.0035457451049578,182.59022369428
3.725,0.0035577242442737,182.61101876588
3.7375,0.0035697036590784,182.63168713751
3.75,0.0035816833492966,182.6522308473
3.7625,0.0035936633148532,182.67265189005
3.775,0.0036056435556731,182.69295221846
3.7875,0.0036176240716811,182.71313374407
3.8,0.0036296048628022,182.73319833841
3.8125,0.0036415859289613,182.75314783325
3.825,0.0036535672700837,182.77298402414
3.8375,0.0036655488860943,182.79270866778
3.85,0.0036775307769184,182.81232348524
3.8625,0.0036895129424812,182.83183016231
3.875,0.0037014953827079,182.85123035224
3.8875,0.0037134780975241,182.87052566978
3.9,0.0037254610868552,182.88971770121
3.9125,0.0037374443506267,182.90880799965
3.925,0.0037494278887643,182.92779808706
3.9375,0.0037614117011937,182.94668945497
3.95,0.0037733957878407,182.96548356526
3.9625,0.0037853801486311,182.98418185081
3.975,0.0037973647834911,183.00278571631
3.9875,0.0038093496923465,183.02129653883
4,0.0038213348751237,183.03971566851
4.0125,0.0038333203317488,183.05804442922
4.025,0.0038453060621483,183.07628411919
4.0375,0.0038572920662487,183.09443601154
4.05,0.0038692783439764,183.11250135496
4.0625,0.0038812648952582,183.13048137428
4.075,0.0038932517200209,183.14837727091
4.0875,0.0039052388181914,183.16619022353
4.1,0.0039172261896967,183.18392138849
4.1125,0.0039292138344639,183.20157190045
4.125,0.0039412017524203,183.21914287276
4.1375,0.0039531899434931,183.23663539804
4.15,0.00396517840761,183.25405054855
4.1625,0.0039771671446984,183.27138937678
4.175,0.0039891561546861,183.2886529158
4.1875,0.0040011454375008,183.3058421797
4.2,0.0040131349930707,183.3229581641
4.2125,0.0040251248213236,183.34000184644
4.225,0.0040371149221879,183.35697418647
4.2375,0.0040491052955918,183.37387612661
4.25,0.0040610959414638,183.39070859236
4.2625,0.0040730868597324,183.40747249262
4.275,0.0040850780503264,183.42416872011
4.2875,0.0040970695131745,183.44079815167
4.3,0.0041090612482057,183.45736164865
4.3125,0.004121053255349,183.47386005724
4.325,0.0041330455345338,183.49029420873
4.3375,0.0041450380856893,183.50666491992
4.35,0.0041570309087449,183.52297299337
4.3625,0.0041690240036303,183.53921921774
4.375,0.0041810173702752,183.55540436806
4.3875,0.0041930110086094,183.571529206
4.4,0.0042050049185629,183.58759448022
4.4125,0.0042169991000658,183.60360092656
4.425,0.0042289935530484,183.61954926834
4.4375,0.004240988277441,183.63544021667
4.45,0.0042529832731741,183.6512744706
4.4625,0.0042649785401785,183.66705271747
4.475,0.0042769740783847,183.68277563307
4.4875,0.0042889698877237,183.69844388193
4.5,0.0043009659681266,183.71405811754
4.5125,0.0043129623195245,183.72961898253
4.525,0.0043249589418487,183.74512710898
4.5375,0.0043369558350306,183.76058311851
4.55,0.0043489529990018,183.77598762261
4.5625,0.0043609504336938,183.79134122276
4.575,0.0043729481390386,183.80664451065
4.5875,0.0043849461149681,183.82189806841
4.6,0.0043969443614143,183.83710246876
4.6125,0.0044089428783094,183.8522582752
4.625,0.0044209416655858,183.86736604219
4.6375,0.0044329407231759,183.88242631533
4.65,0.0044449400510122,183.89743963157
4.6625,0.0044569396490276,183.91240651931
4.675,0.0044689395171548,183.92732749859
4.6875,0.0044809396553269,183.94220308128
4.7,0.0044929400634768,183.95703377121
4.7125,0.0045049407415379,183.97182006433
4.725,0.0045169416894435,183.98656244885
4.7375,0.004528942907127,184.0012614054
4.75,0.0045409443945221,184.01591740716
4.7625,0.0045529461515624,184.03053092004
4.775,0.004564948178182,184.04510240275
4.7875,0.0045769504743147,184.05963230698
4.8,0.0045889530398946,184.07412107751
4.8125,0.004600955874856,184.08856915238
4.825,0.0046129589791333,184.10297696296
4.8375,0.0046249623526609,184.11734493412
4.85,0.0046369659953735,184.13167348427
4.8625,0.0046489699072058,184.1459630256
4.875,0.0046609740880926,184.16021396408
4.8875,0.0046729785379689,184.17442669967
4.9,0.0046849832567699,184.18860162631
4.9125,0.0046969882444308,184.20273913218
4.925,0.0047089935008869,184.21683959966
4.9375,0.0047209990260737,184.23090340553
4.95,0.0047330048199268,184.24493092104
4.9625,0.004745010882382,184.25892251198
4.975,0.0047570172133751,184.27287853883
4.9875,0.0047690238128421,184.28679935681
5,0.004781030680719,184.30068531599
5.0125,0.0047930378169421,184.31453676141
5.025,0.0048050452214478,184.32835403311
5.0375,0.0048170528941724,184.34213746627
5.05,0.0048290608350526,184.35588739125
5.0625,0.0048410690440251,184.36960413371
5.075,0.0048530775210266,184.3832880147
5.0875,0.0048650862659943,184.39693935068
5.1,0.004877095278865,184.41055845366
5.1125,0.004889104559576,184.42414563125
5.125,0.0049011141080647,184.43770118677
5.1375,0.0049131239242685,184.45122541924
5.15,0.0049251340081248,184.46471862355
5.1625,0.0049371443595714,184.47818109047
5.175,0.0049491549785461,184.49161310676
5.1875,0.0049611658649868,184.5050149552
5.2,0.0049731770188315,184.51838691467
5.2125,0.0049851884400184,184.53172926023
5.225,0.0049972001284858,184.54504226318
5.2375,0.0050092120841719,184.5583261911
5.25,0.0050212243070155,184.57158130794
5.2625,0.0050332367969551,184.58480787408
5.275,0.0050452495539294,184.59800614636
5.2875,0.0050572625778773,184.61117637817
5.3,0.0050692758687379,184.62431881951
5.3125,0.0050812894264502,184.63743371703
5.325,0.0050933032509534,184.65052131404
5.3375,0.005105317342187,184.66358185066
5.35,0.0051173317000903,184.67661556383
5.3625,0.005129346324603,184.68962268734
5.375,0.0051413612156648,184.70260345189
5.3875,0.0051533763732155,184.71555808516
5.4,0.0051653917971951,184.72848681185
5.4125,0.0051774074875436,184.74138985371
5.425,0.0051894234442012,184.75426742963
5.4375,0.0052014396671081,184.76711975563
5.45,0.0052134561562049,184.77994704496
5.4625,0.0052254729114321,184.79274950812
5.475,0.0052374899327302,184.80552735287
5.4875,0.0052495072200402,184.81828078436
5.5,0.0052615247733028,184.83101000507
5.5125,0.0052735425924592,184.84371521493
5.525,0.0052855606774503,184.85639661134
5.5375,0.0052975790282175,184.86905438917
5.55,0.0053095976447021,184.88168874085
5.5625,0.0053216165268457,184.89429985641
5.575,0.0053336356745898,184.90688792346
5.5875,0.005345655087876,184.91945312729
5.6,0.0053576747666464,184.93199565086
5.6125,0.0053696947108428,184.9445156749
5.625,0.0053817149204072,184.95701337786
5.6375,0.0053937353952819,184.969488936
5.65,0.0054057561354092,184.98194252343
5.6625,0.0054177771407314,184.99437431209
5.675,0.0054297984111912,185.00678447186
5.6875,0.0054418199467312,185.01917317051
5.7,0.0054538417472941,185.03154057379
5.7125,0.0054658638128229,185.04388684544
5.725,0.0054778861432604,185.05621214724
5.7375,0.00548990873855,185.06851663899
5.75,0.0055019315986347,185.0808004786
5.7625,0.005513954723458,185.09306382208
5.775,0.0055259781129633,185.10530682356
5.7875,0.0055380017670942,185.11752963538
5.8,0.0055500256857943,185.12973240805
5.8125,0.0055620498690076,185.14191529031
5.825,0.0055740743166779,185.15407842914
5.8375,0.0055860990287492,185.16622196979
5.85,0.0055981240051658,185.17834605582
5.8625,0.0056101492458719,185.19045082913
5.875,0.005622174750812,185.20253642993
5.8875,0.0056342005199304,185.21460299684
5.9,0.0056462265531718,185.22665066688
5.9125,0.005658252850481,185.23867957546
5.925,0.0056702794118027,185.25068985647
5.9375,0.0056823062370821,185.26268164223
5.95,0.005694333326264,185.27465506359
5.9625,0.0057063606792938,185.28661024989
5.975,0.0057183882961167,185.298547329
5.9875,0.0057304161766781,185.31046642736
6,0.0057424443209236,185.32236766997
6.0125,0.0057544727287988,185.33425118043
6.025,0.0057665014002494,185.34611708096
6.0375,0.0057785303352213,185.35796549242
6.05,0.0057905595336606,185.36979653432
6.0625,0.0058025889955132,185.38161032485
6.075,0.0058146187207254,185.39340698088
6.0875,0.0058266487092435,185.40518661801
6.1,0.0058386789610139,185.41694935057
6.1125,0.0058507094759831,185.42869529161
6.125,0.0058627402540979,185.440424553
6.1375,0.0058747712953049,185.45213724534
6.15,0.005886802599551,185.46383347806
6.1625,0.0058988341667832,185.4755133594
6.175,0.0059108659969486,185.48717699643
6.1875,0.0059228980899943,185.49882449509
6.2,0.0059349304458677,185.51045596017
6.2125,0.0059469630645162,185.52207149535
6.225,0.0059589959458874,185.53367120321
6.2375,0.0059710290899287,185.54525518524
6.25,0.0059830624965881,185.55682354186
6.2625,0.0059950961658133,185.56837637242
6.275,0.0060071300975523,185.57991377526
6.2875,0.0060191642917531,185.59143584766
6.3,0.0060311987483639,185.60294268591
6.3125,0.0060432334673331,185.6144343853
6.325,0.0060552684486089,185.62591104012
6.3375,0.0060673036921398,185.6373727437
6.35,0.0060793391978746,185.64881958841
6.3625,0.0060913749657618,185.66025166567
6.375,0.0061034109957502,185.67166906598
6.3875,0.0061154472877888,185.68307187891
6.4,0.0061274838418267,185.69446019312
6.4125,0.0061395206578128,185.70583409639
6.425,0.0061515577356965,185.71719367561
6.4375,0.006163595075427,185.7285390168
6.45,0.0061756326769538,185.73987020511
6.4625,0.0061876705402265,185.75118732487
6.475,0.0061997086651946,185.76249045954
6.4875,0.0062117470518079,185.77377969179
6.5,0.0062237857000163,185.78505510345
6.5125,0.0062358246097697,185.79631677557
6.525,0.006247863781018,185.80756478839
6.5375,0.0062599032137116,185.81879922138
6.55,0.0062719429078006,185.83002015323
6.5625,0.0062839828632353,185.84122766189
6.575,0.0062960230799663,185.85242182454
6.5875,0.006308063557944,185.86360271763
6.6,0.0063201042971192,185.87477041688
6.6125,0.0063321452974424,185.88592499728
6.625,0.0063441865588647,185.89706653312
6.6375,0.0063562280813369,185.90819509798
6.6500000000001,0.0063682698648101,185.91931076476
6.6625000000001,0.0063803119092353,185.93041360567
6.6750000000001,0.0063923542145639,185.94150369224
6.6875000000001,0.0064043967807472,185.95258109534
6.7000000000001,0.0064164396077366,185.96364588517
6.7125000000001,0.0064284826954836,185.97469813132
6.7250000000001,0.0064405260439398,185.98573790271
6.7375000000001,0.0064525696530569,185.99676526764
6.7500000000001,0.0064646135227868,186.00778029377
6.7625000000001,0.0064766576530814,186.01878304817
6.7750000000001,0.0064887020438926,186.02977359728
6.7875000000001,0.0065007466951725,186.04075200696
6.8000000000001,0.0065127916068733,186.05171834246
6.8125000000001,0.0065248367789474,186.06267266847
6.8250000000001,0.006536882211347,186.07361504908
6.8375000000001,0.0065489279040246,186.08454554783
6.8500000000001,0.0065609738569328,186.0954642277
6.8625000000001,0.0065730200700241,186.10637115109
6.8750000000001,0.0065850665432515,186.11726637988
6.8875000000001,0.0065971132765676,186.12814997539
6.9000000000001,0.0066091602699254,186.13902199843
6.9125000000001,0.0066212075232778,186.14988250927
6.9250000000001,0.0066332550365781,186.16073156765
6.9375000000001,0.0066453028097793,186.17156923281
6.9500000000001,0.0066573508428347,186.18239556348
6.9625000000001,0.0066693991356977,186.1932106179
6.9750000000001,0.0066814476883217,186.2040144538
6.9875000000001,0.0066934965006603,186.21480712843
7.0000000000001,0.0067055455726671,186.22558869855
7.0125000000001,0.0067175949042958,186.23635922046
7.0250000000001,0.0067296444955001,186.24711874997
7.0375000000001,0.006741694346234,186.25786734245
7.0500000000001,0.0067537444564514,186.2686050528
7.0625000000001,0.0067657948261064,186.27933193546
7.0750000000001,0.006777845455153,186.29004804443
7.0875000000001,0.0067898963435456,186.30075343327
7.1000000000001,0.0068019474912384,186.3114481551
7.1125000000001,0.0068139988981858,186.32213226262
7.1250000000001,0.0068260505643422,186.33280580809
7.1375000000001,0.0068381024896623,186.34346884336
7.1500000000001,0.0068501546741006,186.35412141986
7.1625000000001,0.0068622071176118,186.36476358861
7.1750000000001,0.0068742598201507,186.37539540024
7.1875000000001,0.0068863127816723,186.38601690495
7.2000000000001,0.0068983660021314,186.39662815257
7.2125000000001,0.0069104194814831,186.40722919254
7.2250000000001,0.0069224732196826,186.41782007388
7.2375000000001,0.0069345272166849,186.42840084527
7.2500000000001,0.0069465814724453,186.43897155499
7.2625000000001,0.0069586359869193,186.44953225097
7.2750000000001,0.0069706907600622,186.46008298075
7.2875000000001,0.0069827457918296,186.4706237915
7.3000000000001,0.006994801082177,186.48115473007
7.3125000000001,0.00700685663106,186.49167584292
7.3250000000001,0.0070189124384345,186.50218717616
7.3375000000001,0.0070309685042562,186.51268877557
7.3500000000001,0.0070430248284809,186.52318068657
7.3625000000001,0.0070550814110648,186.53366295427
7.3750000000001,0.0070671382519637,186.54413562341
7.3875000000001,0.0070791953511338,186.55459873842
7.4000000000001,0.0070912527085314,186.56505234341
7.4125000000001,0.0071033103241125,186.57549648214
7.4250000000001,0.0071153681978336,186.58593119806
7.4375000000001,0.0071274263296511,186.59635653432
7.4500000000001,0.0071394847195214,186.60677253375
7.4625000000001,0.0071515433674012,186.61717923885
7.4750000000001,0.0071636022732469,186.62757669185
7.4875000000001,0.0071756614370153,186.63796493466
7.5000000000001,0.0071877208586631,186.64834400887
7.5125000000001,0.0071997805381473,186.65871395581
7.5250000000001,0.0072118404754246,186.66907481651
7.5375000000001,0.0072239006704521,186.67942663169
7.5500000000001,0.0072359611231867,186.68976944179
7.5625000000001,0.0072480218335857,186.700103287
7.5750000000001,0.0072600828016061,186.71042820719
7.5875000000001,0.0072721440272052,186.72074424196
7.6000000000001,0.0072842055103404,186.73105143067
7.6125000000001,0.0072962672509689,186.74134981236
7.6250000000001,0.0073083292490483,186.75163942584
7.6375000000001,0.0073203915045361,186.76192030963
7.6500000000001,0.0073324540173898,186.772192502
7.6625000000001,0.0073445167875672,186.78245604096
7.6750000000001,0.0073565798150258,186.79271096425
7.6875000000001,0.0073686430997235,186.80295730939
7.7000000000001,0.0073807066416181,186.81319511361
7.7125000000001,0.0073927704406676,186.8234244139
7.7250000000001,0.0074048344968299,186.83364524703
7.7375000000001,0.007416898810063,186.84385764947
7.7500000000001,0.007428963380325,186.85406165752
7.7625000000001,0.0074410282075742,186.86425730717
7.7750000000001,0.0074530932917687,186.87444463423
7.7875000000001,0.0074651586328668,186.88462367423
7.8000000000001,0.0074772242308269,186.89479446251
7.8125000000001,0.0074892900856073,186.90495703415
7.8250000000001,0.0075013561971667,186.91511142401
7.8375000000001,0.0075134225654634,186.92525766672
7.8500000000001,0.0075254891904561,186.9353957967
7.8625000000001,0.0075375560721035,186.94552584814
7.8750000000001,0.0075496232103642,186.95564785501
7.8875000000001,0.0075616906051971,186.96576185105
7.9000000000001,0.007573758256561,186.97586786981
7.9125000000001,0.0075858261644148,186.98596594461
7.9250000000001,0.0075978943287175,186.99605610856
7.9375000000001,0.007609962749428,187.00613839457
7.9500000000001,0.0076220314265055,187.01621283534
7.9625000000001,0.0076341003599091,187.02627946335
7.9750000000001,0.007646169549598,187.03633831088
7.9875000000001,0.0076582389955314,187.04638941002
8.0000000000001,0.0076703086976686,187.05643279265
8.0125000000001,0.0076823786559691,187.06646849047
8.0250000000001,0.0076944488703922,187.07649653495
8.0375000000001,0.0077065193408975,187.08651695738
8.0500000000001,0.0077185900674444,187.09652978888
8.0625000000001,0.0077306610499926,187.10653506033
8.0750000000001,0.0077427322885016,187.11653280245
8.0875000000001,0.0077548037829314,187.12652304579
8.1000000000001,0.0077668755332414,187.13650582067
8.1125000000001,0.0077789475393917,187.14648115725
8.1250000000001,0.0077910198013421,187.15644908551
8.1375000000001,0.0078030923190525,187.16640963521
8.1500000000001,0.0078151650924828,187.176362836
8.1625000000001,0.0078272381215932,187.18630871727
8.1750000000001,0.0078393114063437,187.19624730828
8.1875000000001,0.0078513849466945,187.2061786381
8.2000000000001,0.0078634587426057,187.21610273563
8.2125000000001,0.0078755327940376,187.2260196296
8.2250000000001,0.0078876071009506,187.23592934854
8.2375000000001,0.0078996816633049,187.24583192085
8.2500000000001,0.0079117564810611,187.25572737473
8.2625000000001,0.0079238315541794,187.26561573821
8.2750000000001,0.0079359068826206,187.27549703917
8.2875000000001,0.0079479824663451,187.28537130532
8.3000000000001,0.0079600583053136,187.29523856419
8.3125000000001,0.0079721343994866,187.30509884316
8.3250000000001,0.0079842107488251,187.31495216945
8.3375000000001,0.0079962873532897,187.3247985701
8.35,0.0080083642128412,187.33463807202
8.3625,0.0080204413274406,187.34447070194
8.375,0.0080325186970487,187.35429648642
8.3875,0.0080445963216265,187.36411545189
8.4,0.0080566742011352,187.37392762462
8.4125,0.0080687523355356,187.38373303071
8.425,0.008080830724789,187.39353169611
8.4375,0.0080929093688566,187.40332364664
8.45,0.0081049882676995,187.41310890793
8.4625,0.0081170674212791,187.42288750551
8.475,0.0081291468295566,187.4326594647
8.4875,0.0081412264924935,187.44242481073
8.5,0.0081533064100511,187.45218356864
8.5125,0.0081653865821909,187.46193576335
8.525,0.0081774670088745,187.47168141963
8.5375,0.0081895476900634,187.4814205621
8.55,0.0082016286257192,187.49115321523
8.5625,0.0082137098158035,187.50087940337
8.575,0.0082257912602782,187.5105991507
8.5875,0.0082378729591049,187.52031248128
8.6,0.0082499549122454,187.53001941904
8.6125,0.0082620371196616,187.53971998775
8.625,0.0082741195813153,187.54941421104
8.6375,0.0082862022971686,187.55910211243
8.65,0.0082982852671834,187.56878371528
8.6625,0.0083103684913218,187.57845904282
8.675,0.0083224519695457,187.58812811815
8.6875,0.0083345357018174,187.59779096425
8.7,0.008346619688099,187.60744760394
8.7125,0.0083587039283527,187.61709805993
8.725,0.0083707884225408,187.6267423548
8.7375,0.0083828731706256,187.63638051098
8.75,0.0083949581725694,187.6460125508
8.7625,0.0084070434283346,187.65563849643
8.775,0.0084191289378837,187.66525836995
8.7875,0.0084312147011792,187.67487219329
8.8,0.0084433007181835,187.68447998825
8.8125,0.0084553869888593,187.69408177652
8.825,0.0084674735131692,187.70367757967
8.8375,0.0084795602910758,187.71326741912
8.85,0.0084916473225418,187.7228513162
8.8625,0.00850373460753,187.73242929209
8.875,0.0085158221460031,187.74200136789
8.8875,0.008527909937924,187.75156756454
8.9,0.0085399979832556,187.76112790288
8.9125,0.0085520862819608,187.77068240362
8.925,0.0085641748340025,187.78023108737
8.9375,0.0085762636393438,187.7897739746
8.95,0.0085883526979476,187.7993110857
8.9625,0.0086004420097771,187.8088424409
8.975,0.0086125315747954,187.81836806035
8.9875,0.0086246213929657,187.82788796408
9,0.0086367114642511,187.83740217199
9.0125,0.008648801788615,187.84691070389
9.025,0.0086608923660206,187.85641357946
9.0375,0.0086729831964313,187.86591081828
9.05,0.0086850742798104,187.87540243982
9.0625,0.0086971656161213,187.88488846343
9.075,0.0087092572053275,187.89436890838
9.0875,0.0087213490473926,187.90384379379
9.1,0.00873344114228,187.9133131387
9.1125,0.0087455334899533,187.92277696204
9.125,0.0087576260903762,187.93223528264
9.1375,0.0087697189435123,187.94168811921
9.15,0.0087818120493252,187.95113549035
9.1625,0.0087939054077788,187.96057741459
9.175,0.0088059990188368,187.97001391033
9.1875,0.0088180928824631,187.97944499586
9.2,0.0088301869986214,187.9888706894
9.2125,0.0088422813672757,187.99829100904
9.225,0.0088543759883899,188.00770597277
9.2375,0.0088664708619281,188.01711559851
9.25,0.0088785659878541,188.02651990406
9.2625,0.0088906613661321,188.0359189071
9.275,0.0089027569967261,188.04531262526
9.2875,0.0089148528796003,188.05470107603
9.3,0.0089269490147188,188.06408427683
9.3125,0.0089390454020459,188.07346224498
9.325,0.0089511420415457,188.08283499768
9.3375,0.0089632389331826,188.09220255207
9.35,0.0089753360769209,188.10156492518
9.3625,0.0089874334727249,188.11092213393
9.375,0.0089995311205591,188.12027419519
9.3875,0.0090116290203878,188.12962112569
9.4,0.0090237271721756,188.13896294211
9.4125,0.0090358255758868,188.148299661
9.425,0.0090479242314862,188.15763129884
9.4375,0.0090600231389382,188.16695787203
9.45,0.0090721222982074,188.17627939687
9.4625,0.0090842217092586,188.18559588956
9.475,0.0090963213720564,188.19490736622
9.4875,0.0091084212865655,188.2042138429
9.5,0.0091205214527507,188.21351533554
9.5125,0.0091326218705767,188.22281186
9.525,0.0091447225400085,188.23210343205
9.5375,0.0091568234610109,188.24139006739
9.55,0.0091689246335488,188.25067178162
9.5625,0.0091810260575871,188.25994859026
9.575,0.0091931277330908,188.26922050875
9.5875,0.009205229660025,188.27848755245
9.6,0.0092173318383546,188.28774973662
9.6125,0.0092294342680447,188.29700707645
9.625,0.0092415369490606,188.30625958706
9.6375,0.0092536398813672,188.31550728346
9.65,0.0092657430649298,188.32475018062
9.6625,0.0092778464997137,188.33398829339
9.675,0.009289950185684,188.3432216368
9.6875,0.0093020541228062,188.35245022493
9.7,0.0093141583110454,188.36167407293
9.7125,0.0093262627503671,188.37089319524
9.725,0.0093383674407367,188.38010760631
9.7375,0.0093504723821195,188.38931732054
9.75,0.0093625775744811,188.39852235226
9.7625,0.0093746830177869,188.40772271571
9.775,0.0093867887120025,188.41691842506
9.7875,0.0093988946570935,188.42610949442
9.8,0.0094110008530253,188.43529593779
9.8125,0.0094231072997638,188.44447776913
9.825,0.0094352139972745,188.45365500231
9.8375,0.0094473209455231,188.46282765113
9.85,0.0094594281444754,188.47199572932
9.8625,0.0094715355940971,188.48115925054
9.875,0.009483643294354,188.49031822836
9.8875,0.009495751245212,188.49947267632
9.9,0.009507859446637,188.50862260783
9.9125,0.0095199678985947,188.51776803629
9.925,0.0095320766010512,188.52690897498
9.9375,0.0095441855539724,188.53604543715
9.95,0.0095562947573244,188.54517743597
9.9625,0.0095684042110731,188.55430498452
9.975,0.0095805139151845,188.56342809583
9.9875,0.0095926238696249,188.57254678287
10,0.0096047340743603,188.58166105853
10.0125,0.0096168445293568,188.59077093563
10.025,0.0096289552345808,188.59987642694
10.0375,0.0096410661899983,188.60897754516
10.05,0.0096531773955756,188.6180743029
10.0625,0.0096652888512791,188.62716671274
10.075,0.009677400557075,188.63625478718
10.0875,0.0096895125129297,188.64533853865
10.1,0.0097016247188096,188.65441797952
10.1125,0.009713737174681,188.6634931221
10.125,0.0097258498805105,188.67256397863
10.1375,0.0097379628362644,188.6816305613
10.15,0.0097500760419094,188.69069288223
10.1625,0.0097621894974119,188.69975095349
10.175,0.0097743032027385,188.70880478705
10.1875,0.0097864171578558,188.71785439487
10.2,0.0097985313627305,188.72689978881
10.2125,0.0098106458173291,188.7359409807
10.225,0.0098227605216185,188.74497798228
10.2375,0.0098348754755652,188.75401080525
10.25,0.0098469906791361,188.76303946125
10.2625,0.009859106132298,188.77206396186
10.275,0.0098712218350176,188.78108431859
10.2875,0.0098833377872618,188.7901005429
10.3,0.0098954539889976,188.79911264621
10.3125,0.0099075704401917,188.80812063985
10.325,0.0099196871408111,188.81712453511
10.3375,0.0099318040908228,188.82612434323
10.35,0.0099439212901939,188.83512007538
10.3625,0.0099560387388912,188.84411174268
10.375,0.0099681564368819,188.85309935619
10.3875,0.0099802743841331,188.86208292693
10.4,0.0099923925806118,188.87106246584
10.4125,0.010004511026285,188.88003798382
10.425,0.010016629721121,188.88900949173
10.4375,0.010028748665085,188.89797700034
10.45,0.010040867858146,188.90694052041
10.4625,0.01005298730027,188.9159000626
10.475,0.010065106991426,188.92485563755
10.4875,0.010077226931579,188.93380725583
10.5,0.010089347120698,188.94275492798
10.5125,0.010101467558751,188.95169866447
10.525,0.010113588245703,188.96063847571
10.5375,0.010125709181523,188.96957437207
10.55,0.010137830366179,188.97850636388
10.5625,0.010149951799637,188.9874344614
10.575,0.010162073481866,188.99635867485
10.5875,0.010174195412833,189.00527901439
10.6,0.010186317592505,189.01419549015
10.6125,0.01019844002085,189.02310811218
10.625,0.010210562697836,189.03201689051
10.6375,0.01022268562343,189.0409218351
10.65,0.010234808797601,189.04982295587
10.6625,0.010246932220315,189.05872026269
10.675,0.010259055891541,189.06761376539
10.6875,0.010271179811246,189.07650347374
10.7,0.010283303979399,189.08538939747
10.7125,0.010295428395966,189.09427154625
10.725,0.010307553060917,189.10314992972
10.7375,0.010319677974218,189.11202455746
10.75,0.010331803135838,189.12089543902
10.7625,0.010343928545745,189.12976258387
10.775,0.010356054203907,189.13862600148
10.7875,0.010368180110291,189.14748570123
10.8,0.010380306264867,189.15634169249
10.8125,0.010392432667601,189.16519398456
10.825,0.010404559318462,189.1740425867
10.8375,0.010416686217418,189.18288750814
10.85,0.010428813364437,189.19172875806
10.8625,0.010440940759488,189.20056634557
10.875,0.010453068402539,189.20940027977
10.8875,0.010465196293558,189.2182305697
10.9,0.010477324432512,189.22705722436
10.9125,0.010489452819372,189.2358802527
10.925,0.010501581454104,189.24469966363
10.9375,0.010513710336677,189.25351546604
10.95,0.01052583946706,189.26232766874
10.9625,0.010537968845221,189.27113628052
10.975,0.010550098471128,189.27994131012
10.9875,0.010562228344751,189.28874276624
11,0.010574358466056,189.29754065754
11.0125,0.010586488835014,189.30633499264
11.025,0.010598619451592,189.31512578012
11.0375,0.010610750315759,189.3239130285
11.05,0.010622881427484,189.3326967463
11.0625,0.010635012786735,189.34147694195
11.075,0.010647144393481,189.35025362387
11.0875,0.01065927624769,189.35902680045
11.1,0.010671408349332,189.36779648001
11.1125,0.010683540698376,189.37656267084
11.125,0.010695673294789,189.38532538121
11.1375,0.01070780613854,189.39408461933
11.15,0.0107199392296,189.40284039337
11.1625,0.010732072567935,189.41159271148
11.175,0.010744206153516,189.42034158175
11.1875,0.010756339986311,189.42908701225
11.2,0.01076847406629,189.437829011
11.2125,0.01078060839342,189.44656758598
11.225,0.010792742967671,189.45530274515
11.2375,0.010804877789013,189.46403449641
11.25,0.010817012857413,189.47276284764
11.2625,0.010829148172842,189.48148780667
11.275,0.010841283735268,189.4902093813
11.2875,0.010853419544661,189.49892757929
11.3,0.010865555600989,189.50764240838
11.3125,0.010877691904222,189.51635387625
11.325,0.010889828454329,189.52506199056
11.3375,0.01090196525128,189.53376675892
11.35,0.010914102295042,189.54246818891
11.3625,0.010926239585587,189.55116628809
11.375,0.010938377122883,189.55986106396
11.3875,0.010950514906899,189.568552524
11.4,0.010962652937605,189.57724067566
11.4125,0.01097479121497,189.58592552634
11.425,0.010986929738964,189.59460708341
11.4375,0.010999068509556,189.60328535421
11.45,0.011011207526716,189.61196034604
11.4625,0.011023346790412,189.62063206618
11.475,0.011035486300616,189.62930052186
11.4875,0.011047626057296,189.63796572028
11.5,0.011059766060421,189.64662766862
11.5125,0.011071906309962,189.655286374
11.525,0.011084046805888,189.66394184354
11.5375,0.011096187548168,189.6725940843
11.55,0.011108328536774,189.68124310333
11.5625,0.011120469771673,189.68988890762
11.575,0.011132611252836,189.69853150414
11.5875,0.011144752980233,189.70717089985
11.6,0.011156894953833,189.71580710165
11.6125,0.011169037173607,189.72444011641
11.625,0.011181179639524,189.73306995098
11.6375,0.011193322351554,189.74169661217
11.65,0.011205465309666,189.75032010677
11.6625,0.011217608513832,189.75894044154
11.675,0.011229751964021,189.76755762318
11.6875,0.011241895660202,189.77617165838
11.7,0.011254039602347,189.78478255382
11.7125,0.011266183790424,189.79339031611
11.725,0.011278328224404,189.80199495186
11.7375,0.011290472904258,189.81059646763
11.75,0.011302617829954,189.81919486996
11.7625,0.011314763001464,189.82779016536
11.775,0.011326908418758,189.83638236031
11.7875,0.011339054081805,189.84497146126
11.8,0.011351199990577,189.85355747463
11.8125,0.011363346145042,189.8621404068
11.825,0.011375492545172,189.87072026415
11.8375,0.011387639190937,189.87929705301
11.85,0.011399786082307,189.88787077967
11.8625,0.011411933219252,189.89644145042
11.875,0.011424080601744,189.9050090715
11.8875,0.011436228229752,189.91357364914
11.9,0.011448376103246,189.92213518952
11.9125,0.011460524222198,189.9306936988
11.925,0.011472672586577,189.93924918314
11.9375,0.011484821196355,189.94780164862
11.95,0.011496970051502,189.95635110133
11.9625,0.011509119151988,189.96489754733
11.975,0.011521268497783,189.97344099264
11.9875,0.01153341808886,189.98198144326
12,0.011545567925188,189.99051890516
12.0125,0.011557718006737,189.9990533843
12.025,0.011569868333479,190.00758488658
12.0375,0.011582018905385,190.01611341789
12.05,0.011594169722424,190.02463898412
12.0625,0.011606320784569,190.03316159109
12.075,0.011618472091789,190.04168124462
12.0875,0.011630623644056,190.0501979505
12.1,0.01164277544134,190.05871171449
12.1125,0.011654927483612,190.06722254233
12.125,0.011667079770844,190.07573043972
12.1375,0.011679232303006,190.08423541237
12.15,0.011691385080069,190.09273746592
12.1625,0.011703538102003,190.10123660601
12.175,0.011715691368781,190.10973283825
12.1875,0.011727844880373,190.11822616823
12.2,0.011739998636751,190.12671660152
12.2125,0.011752152637884,190.13520414364
12.225,0.011764306883745,190.14368880011
12.2375,0.011776461374304,190.15217057642
12.25,0.011788616109534,190.16064947804
12.2625,0.011800771089404,190.1691255104
12.275,0.011812926313886,190.17759867892
12.2875,0.011825081782952,190.18606898899
12.3,0.011837237496572,190.19453644598
12.3125,0.011849393454718,190.20300105524
12.325,0.011861549657362,190.2114628221
12.3375,0.011873706104474,190.21992175184
12.35,0.011885862796026,190.22837784974
12.3625,0.011898019731989,190.23683112107
12.375,0.011910176912336,190.24528157104
12.3875,0.011922334337036,190.25372920487
12.4,0.011934492006063,190.26217402774
12.4125,0.011946649919387,190.27061604482
12.425,0.011958808076979,190.27905526124
12.4375,0.011970966478812,190.28749168212
12.45,0.011983125124857,190.29592531257
12.4625,0.011995284015085,190.30435615763
12.475,0.012007443149469,190.31278422239
12.4875,0.012019602527979,190.32120951186
12.5,0.012031762150588,190.32963203105
12.5125,0.012043922017267,190.33805178495
12.525,0.012056082127988,190.34646877853
12.5375,0.012068242482723,190.35488301672
12.55,0.012080403081443,190.36329450446
12.5625,0.01209256392412,190.37170324664
12.575,0.012104725010727,190.38010924814
12.5875,0.012116886341235,190.38851251384
12.6,0.012129047915615,190.39691304855
12.6125,0.012141209733841,190.40531085712
12.625,0.012153371795883,190.41370594432
12.6375,0.012165534101713,190.42209831495
12.65,0.012177696651305,190.43048797375
12.6625,0.012189859444629,190.43887492547
12.675,0.012202022481658,190.44725917483
12.6875,0.012214185762363,190.45564072652
12.7,0.012226349286718,190.46401958522
12.7125,0.012238513054693,190.47239575558
12.725,0.012250677066261,190.48076924225
12.7375,0.012262841321395,190.48914004984
12.75,0.012275005820066,190.49750818297
12.7625,0.012287170562247,190.50587364619
12.775,0.01229933554791,190.51423644408
12.7875,0.012311500777027,190.52259658118
12.8,0.01232366624957,190.53095406201
12.8125,0.012335831965512,190.53930889107
12.825,0.012347997924825,190.54766107286
12.8375,0.012360164127482,190.55601061183
12.85,0.012372330573454,190.56435751243
12.8625,0.012384497262715,190.57270177909
12.875,0.012396664195236,190.58104341623
12.8875,0.01240883137099,190.58938242824
12.9,0.01242099878995,190.59771881948
12.9125,0.012433166452088,190.60605259433
12.925,0.012445334357377,190.61438375711
12.9375,0.012457502505789,190.62271231214
12.95,0.012469670897297,190.63103826374
12.9625,0.012481839531873,190.63936161618
12.975,0.01249400840949,190.64768237373
12.9875,0.01250617753012,190.65600054064
13,0.012518346893737,190.66431612114
13.0125,0.012530516500313,190.67262911945
13.025,0.012542686349821,190.68093953976
13.0375,0.012554856442234,190.68924738626
13.05,0.012567026777523,190.69755266311
13.0625,0.012579197355663,190.70585537446
13.075,0.012591368176626,190.71415552442
13.0875,0.012603539240384,190.72245311713
13.1,0.012615710546911,190.73074815667
13.1125,0.01262788209618,190.73904064712
13.125,0.012640053888163,190.74733059255
13.1375,0.012652225922833,190.75561799701
13.15,0.012664398200164,190.76390286451
13.1625,0.012676570720128,190.77218519908
13.175,0.012688743482699,190.78046500471
13.1875,0.012700916487849,190.78874228539
13.2,0.012713089735551,190.79701704508
13.2125,0.012725263225779,190.80528928773
13.225,0.012737436958506,190.81355901728
13.2375,0.012749610933704,190.82182623763
13.25,0.012761785151348,190.83009095271
13.2625,0.012773959611409,190.83835316638
13.275,0.012786134313862,190.84661288252
13.2875,0.01279830925868,190.85487010499
13.3,0.012810484445835,190.86312483763
13.3125,0.012822659875302,190.87137708427
13.325,0.012834835547053,190.8796268487
13.3375,0.012847011461062,190.88787413474
13.35,0.012859187617302,190.89611894615
13.3625,0.012871364015746,190.90436128671
13.375,0.012883540656368,190.91260116016
13.3875,0.012895717539142,190.92083857023
13.4,0.01290789466404,190.92907352066
13.4125,0.012920072031037,190.93730601514
13.425,0.012932249640105,190.94553605736
13.4375,0.012944427491219,190.95376365101
13.45,0.012956605584351,190.96198879974
13.4625,0.012968783919475,190.97021150721
13.475,0.012980962496566,190.97843177704
13.4875,0.012993141315596,190.98664961286
13.5,0.013005320376539,190.99486501826
13.5125,0.013017499679369,191.00307799686
13.525,0.01302967922406,191.01128855221
13.5375,0.013041859010584,191.01949668789
13.55,0.013054039038917,191.02770240744
13.5625,0.013066219309031,191.0359057144
13.575,0.013078399820901,191.0441066123
13.5875,0.0130905805745,191.05230510464
13.6,0.013102761569802,191.06050119491
13.6125,0.01311494280678,191.0686948866
13.625,0.01312712428541,191.07688618318
13.6375,0.013139306005664,191.08507508811
13.65,0.013151487967517,191.09326160481
13.6625,0.013163670170942,191.10144573673
13.675,0.013175852615913,191.10962748727
13.6875,0.013188035302405,191.11780685985
13.7,0.013200218230392,191.12598385785
13.7125,0.013212401399847,191.13415848464
13.725,0.013224584810744,191.14233074359
13.7375,0.013236768463058,191.15050063806
13.75,0.013248952356762,191.15866817137
13.7625,0.013261136491831,191.16683334686
13.775,0.01327332086824,191.17499616784
13.7875,0.013285505485961,191.18315663761
13.8,0.013297690344969,191.19131475945
13.8125,0.013309875445239,191.19947053665
13.825,0.013322060786744,191.20762397246
13.8375,0.01333424636946,191.21577507015
13.85,0.013346432193359,191.22392383293
13.8625,0.013358618258417,191.23207026405
13.875,0.013370804564608,191.24021436672
13.8875,0.013382991111906,191.24835614414
13.9,0.013395177900285,191.2564955995
13.9125,0.01340736492972,191.26463273598
13.925,0.013419552200186,191.27276755674
13.9375,0.013431739711656,191.28090006495
13.95,0.013443927464105,191.28903026375
13.9625,0.013456115457508,191.29715815626
13.975,0.013468303691839,191.30528374561
13.9875,0.013480492167073,191.3134070349
14,0.013492680883184,191.32152802725
14.0125,0.013504869840147,191.32964672572
14.025,0.013517059037936,191.33776313339
14.0375,0.013529248476526,191.34587725333
14.05,0.013541438155891,191.3539890886
14.0625,0.013553628076007,191.36209864222
14.075,0.013565818236848,191.37020591724
14.0875,0.013578008638388,191.37831091666
14.1,0.013590199280602,191.3864136435
14.1125,0.013602390163466,191.39451410076
14.125,0.013614581286953,191.40261229141
14.1375,0.013626772651039,191.41070821844
14.15,0.013638964255698,191.41880188481
14.1625,0.013651156100905,191.42689329347
14.175,0.013663348186636,191.43498244736
14.1875,0.013675540512864,191.44306934942
14.2,0.013687733079565,191.45115400257
14.2125,0.013699925886714,191.45923640972
14.225,0.013712118934285,191.46731657377
14.2375,0.013724312222254,191.47539449761
14.25,0.013736505750596,191.48347018413
14.2625,0.013748699519285,191.49154363618
14.275,0.013760893528297,191.49961485663
14.2875,0.013773087777606,191.50768384833
14.3,0.013785282267188,191.51575061412
14.3125,0.013797476997018,191.52381515682
14.325,0.013809671967071,191.53187747926
14.3375,0.013821867177321,191.53993758424
14.35,0.013834062627745,191.54799547457
14.3625,0.013846258318317,191.55605115302
14.375,0.013858454249013,191.56410462239
14.3875,0.013870650419807,191.57215588544
14.4,0.013882846830676,191.58020494492
14.4125,0.013895043481593,191.5882518036
14.425,0.013907240372535,191.59629646421
14.4375,0.013919437503477,191.60433892948
14.45,0.013931634874394,191.61237920212
14.4625,0.013943832485261,191.62041728487
14.475,0.013956030336054,191.6284531804
14.4875,0.013968228426748,191.63648689142
14.5,0.013980426757319,191.64451842062
14.5125,0.013992625327741,191.65254777066
14.525,0.014004824137991,191.66057494421
14.5375,0.014017023188044,191.66859994393
14.55,0.014029222477876,191.67662277246
14.5625,0.014041422007461,191.68464343243
14.575,0.014053621776776,191.69266192649
14.5875,0.014065821785795,191.70067825724
14.6,0.014078022034495,191.7086924273
14.6125,0.014090222522852,191.71670443926
14.625,0.01410242325084,191.72471429573
14.6375,0.014114624218435,191.73272199928
14.65,0.014126825425613,191.74072755248
14.6625,0.01413902687235,191.74873095791
14.675,0.014151228558621,191.75673221812
14.6875,0.014163430484403,191.76473133566
14.7,0.01417563264967,191.77272831307
14.7125,0.014187835054399,191.78072315288
14.725,0.014200037698565,191.78871585762
14.7375,0.014212240582144,191.79670642978
14.75,0.014224443705112,191.8046948719
14.7625,0.014236647067445,191.81268118645
14.775,0.014248850669118,191.82066537593
14.7875,0.014261054510108,191.82864744281
14.8,0.01427325859039,191.83662738958
14.8125,0.014285462909941,191.8446052187
14.825,0.014297667468736,191.85258093261
14.8375,0.014309872266751,191.86055453377
14.85,0.014322077303963,191.86852602462
14.8625,0.014334282580346,191.87649540759
14.875,0.014346488095878,191.8844626851
14.8875,0.014358693850534,191.89242785957
14.9,0.01437089984429,191.9003909334
14.9125,0.014383106077123,191.908351909
14.925,0.014395312549008,191.91631078875
14.9375,0.014407519259921,191.92426757503
14.95,0.01441972620984,191.93222227023
14.9625,0.014431933398739,191.94017487672
14.975,0.014444140826595,191.94812539684
14.9875,0.014456348493385,191.95607383296
15,0.014468556399084,191.96402018742
15.0125,0.014480764543669,191.97196446255
15.025,0.014492972927116,191.97990666069
15.0375,0.014505181549401,191.98784678416
15.05,0.0145173904105,191.99578483527
15.0625,0.014529599510391,192.00372081633
15.075,0.014541808849048,192.01165472963
15.0875,0.014554018426449,192.01958657747
15.1,0.014566228242571,192.02751636214
15.1125,0.014578438297388,192.03544408591
15.125,0.014590648590878,192.04336975106
15.1375,0.014602859123018,192.05129335984
15.15,0.014615069893783,192.05921491451
15.1625,0.01462728090315,192.06713441731
15.175,0.014639492151096,192.0750518705
15.1875,0.014651703637597,192.0829672763
15.2,0.014663915362629,192.09088063694
15.2125,0.01467612732617,192.09879195465
15.225,0.014688339528195,192.10670123162
15.2375,0.014700551968682,192.11460847008
15.25,0.014712764647607,192.12251367221
15.2625,0.014724977564947,192.13041684021
15.275,0.014737190720678,192.13831797627
15.2875,0.014749404114776,192.14621708257
15.3,0.01476161774722,192.15411416126
15.3125,0.014773831617984,192.16200921453
15.325,0.014786045727047,192.16990224452
15.3375,0.014798260074385,192.1777932534
15.35,0.014810474659974,192.18568224329
15.3625,0.014822689483792,192.19356921634
15.375,0.014834904545814,192.20145417469
15.3875,0.014847119846019,192.20933712045
15.4,0.014859335384382,192.21721805575
15.4125,0.014871551160882,192.22509698269
15.425,0.014883767175493,192.23297390338
15.4375,0.014895983428195,192.24084881992
15.45,0.014908199918962,192.2487217344
15.4625,0.014920416647773,192.2565926489
15.475,0.014932633614605,192.26446156551
15.4875,0.014944850819433,192.2723284863
15.5,0.014957068262236,192.28019341333
15.5125,0.01496928594299,192.28805634867
15.525,0.014981503861673,192.29591729437
15.5375,0.014993722018261,192.30377625247
15.55,0.015005940412731,192.31163322502
15.5625,0.015018159045061,192.31948821405
15.575,0.015030377915227,192.3273412216
15.5875,0.015042597023208,192.33519224968
15.6,0.015054816368979,192.34304130032
15.6125,0.015067035952518,192.35088837551
15.625,0.015079255773802,192.35873347728
15.6375,0.015091475832809,192.36657660761
15.65,0.015103696129516,192.3744177685
15.6625,0.0151159166639,192.38225696194
15.675,0.015128137435937,192.39009418991
15.6875,0.015140358445607,192.39792945438
15.7,0.015152579692885,192.40576275733
15.7125,0.015164801177749,192.41359410071
15.725,0.015177022900176,192.42142348648
15.7375,0.015189244860145,192.4292509166
15.75,0.015201467057631,192.43707639301
15.7625,0.015213689492613,192.44489991765
15.775,0.015225912165068,192.45272149246
15.7875,0.015238135074973,192.46054111937
15.8,0.015250358222306,192.46835880029
15.8125,0.015262581607045,192.47617453716
15.825,0.015274805229166,192.48398833186
15.8375,0.015287029088647,192.49180018633
15.85,0.015299253185466,192.49961010246
15.8625,0.015311477519601,192.50741808213
15.875,0.015323702091028,192.51522412725
15.8875,0.015335926899726,192.52302823969
15.9,0.015348151945671,192.53083042135
15.9125,0.015360377228843,192.53863067408
15.925,0.015372602749218,192.54642899976
15.9375,0.015384828506773,192.55422540025
15.95,0.015397054501487,192.56201987741
15.9625,0.015409280733338,192.56981243308
15.975,0.015421507202302,192.57760306913
15.9875,0.015433733908358,192.58539178739
16,0.015445960851484,192.59317858969
16.0125,0.015458188031657,192.60096347788
16.025,0.015470415448855,192.60874645376
16.0375,0.015482643103055,192.61652751917
16.05,0.015494870994236,192.62430667592
16.0625,0.015507099122375,192.63208392581
16.075,0.015519327487451,192.63985927067
16.0875,0.015531556089441,192.64763271228
16.1,0.015543784928323,192.65540425244
16.1125,0.015556014004074,192.66317389295
16.125,0.015568243316674,192.67094163558
16.1375,0.015580472866099,192.67870748212
16.15,0.015592702652328,192.68647143434
16.1625,0.015604932675338,192.69423349402
16.175,0.015617162935108,192.70199366291
16.1875,0.015629393431616,192.70975194278
16.2,0.01564162416484,192.71750833539
16.2125,0.015653855134757,192.72526284248
16.225,0.015666086341346,192.73301546581
16.2375,0.015678317784585,192.74076620711
16.25,0.015690549464452,192.74851506811
16.2625,0.015702781380925,192.75626205056
16.275,0.015715013533982,192.76400715617
16.2875,0.015727245923601,192.77175038668
16.3,0.015739478549761,192.77949174379
16.3125,0.01575171141244,192.78723122922
16.325,0.015763944511616,192.79496884467
16.3375,0.015776177847267,192.80270459186
16.35,0.015788411419371,192.81043847248
16.3625,0.015800645227907,192.81817048821
16.375,0.015812879272853,192.82590064077
16.3875,0.015825113554187,192.83362893182
16.4,0.015837348071887,192.84135536304
16.4125,0.015849582825932,192.84907993612
16.425,0.015861817816301,192.85680265273
16.4375,0.015874053042971,192.86452351453
16.45,0.015886288505921,192.87224252318
16.4625,0.015898524205129,192.87995968034
16.475,0.015910760140574,192.88767498767
16.4875,0.015922996312234,192.89538844682
16.5,0.015935232720088,192.90310005942
16.5125,0.015947469364113,192.91080982712
16.525,0.01595970624429,192.91851775156
16.5375,0.015971943360595,192.92622383437
16.55,0.015984180713008,192.93392807721
16.5625,0.015996418301507,192.94163048159
16.575,0.016008656126071,192.94933104924
16.5875,0.016020894186678,192.95702978179
16.6,0.016033132483306,192.96472668072
16.6125,0.016045371015936,192.97242174778
16.625,0.016057609784544,192.98011498448
16.6375,0.016069848789109,192.98780639245
16.65,0.016082088029612,192.99549597327
16.6625,0.016094327506029,193.00318372854
16.675,0.01610656721834,193.01086965984
16.6875,0.016118807166523,193.01855376876
16.7,0.016131047350557,193.02623605686
16.7125,0.016143287770421,193.03391652573
16.725,0.016155528426094,193.04159517693
16.7375,0.016167769317554,193.04927201202
16.75,0.016180010444781,193.05694703257
16.7625,0.016192251807752,193.06462024013
16.775,0.016204493406447,193.07229163625
16.7875,0.016216735240845,193.07996122249
16.8,0.016228977310924,193.08762900038
16.8125,0.016241219616664,193.09529497148
16.825,0.016253462158043,193.10295913731
16.8375,0.01626570493504,193.1106214994
16.85,0.016277947947634,193.11828205929
16.8625,0.016290191195805,193.1259408185
16.875,0.01630243467953,193.13359777855
16.8875,0.016314678398789,193.14125294097
16.9,0.016326922353562,193.14890630725
16.9125,0.016339166543826,193.15655787891
16.925,0.016351410969561,193.16420765746
16.9375,0.016363655630747,193.1718556444
16.95,0.016375900527361,193.17950184122
16.9625,0.016388145659384,193.18714624943
16.975,0.016400391026794,193.1947888705
16.9875,0.016412636629571,193.20242970593
17,0.016424882467693,193.21006875721
17.0125,0.016437128541139,193.2177060258
17.025,0.01644937484989,193.22534151319
17.0375,0.016461621393924,193.23297522085
17.05,0.016473868173219,193.24060715024
17.0625,0.016486115187757,193.24823730283
17.075,0.016498362437515,193.25586568008
17.0875,0.016510609922472,193.26349228344
17.1,0.016522857642609,193.27111711438
17.1125,0.016535105597905,193.27874017434
17.125,0.016547353788338,193.28636146477
17.1375,0.016559602213888,193.29398098711
17.15,0.016571850874535,193.3015987428
17.1625,0.016584099770257,193.30921473327
17.175,0.016596348901034,193.31682895997
17.1875,0.016608598266846,193.32444142431
17.2,0.016620847867672,193.33205212772
17.2125,0.016633097703491,193.33966107163
17.225,0.016645347774282,193.34726825744
17.2375,0.016657598080026,193.35487368658
17.25,0.016669848620701,193.36247736047
17.2625,0.016682099396287,193.37007928049
17.275,0.016694350406764,193.37767944807
17.2875,0.016706601652111,193.3852778646
17.3,0.016718853132307,193.39287453148
17.3125,0.016731104847333,193.40046945011
17.325,0.016743356797167,193.40806262186
17.3375,0.016755608981789,193.41565404814
17.35,0.016767861401179,193.42324373033
17.3625,0.016780114055316,193.43083166981
17.375,0.016792366944181,193.43841786795
17.3875,0.016804620067752,193.44600232613
17.4,0.01681687342601,193.45358504571
17.4125,0.016829127018933,193.46116602808
17.425,0.016841380846502,193.46874527459
17.4375,0.016853634908697,193.4763227866
17.45,0.016865889205496,193.48389856548
17.4625,0.01687814373688,193.49147261257
17.475,0.016890398502829,193.49904492923
17.4875,0.016902653503323,193.50661551681
17.5,0.01691490873834,193.51418437664
17.5125,0.016927164207861,193.52175151008
17.525,0.016939419911866,193.52931691846
17.5375,0.016951675850334,193.53688060312
17.55,0.016963932023246,193.54444256539
17.5625,0.016976188430581,193.5520028066
17.575,0.016988445072319,193.55956132807
17.5875,0.01700070194844,193.56711813114
17.6,0.017012959058924,193.57467321711
17.6125,0.017025216403751,193.58222658731
17.625,0.0170374739829,193.58977824304
17.6375,0.017049731796353,193.59732818563
17.65,0.017061989844087,193.60487641637
17.6625,0.017074248126085,193.61242293658
17.675,0.017086506642325,193.61996774755
17.6875,0.017098765392788,193.62751085058
17.7,0.017111024377454,193.63505224697
17.7125,0.017123283596302,193.64259193801
17.725,0.017135543049313,193.65012992499
17.7375,0.017147802736467,193.65766620919
17.75,0.017160062657744,193.66520079191
17.7625,0.017172322813125,193.67273367442
17.775,0.017184583202588,193.680264858
17.7875,0.017196843826115,193.68779434391
17.8,0.017209104683685,193.69532213345
17.8125,0.017221365775279,193.70284822787
17.825,0.017233627100877,193.71037262844
17.8375,0.017245888660459,193.71789533642
17.85,0.017258150454005,193.72541635308
17.8625,0.017270412481496,193.73293567967
17.875,0.017282674742911,193.74045331744
17.8875,0.017294937238232,193.74796926765
17.9,0.017307199967438,193.75548353155
17.9125,0.017319462930509,193.76299611037
17.925,0.017331726127427,193.77050700538
17.9375,0.017343989558171,193.7780162178
17.95,0.017356253222721,193.78552374887
17.9625,0.017368517121058,193.79302959983
17.975,0.017380781253163,193.80053377191
17.9875,0.017393045619015,193.80803626633
18,0.017405310218596,193.81553708434
18.0125,0.017417575051885,193.82303622714
18.025,0.017429840118863,193.83053369597
18.0375,0.017442105419511,193.83802949203
18.049999999999,0.017454370953808,193.84552361655
18.062499999999,0.017466636721736,193.85301607073
18.074999999999,0.017478902723274,193.86050685579
18.087499999999,0.017491168958404,193.86799597293
18.099999999999,0.017503435427106,193.87548342337
18.112499999999,0.01751570212936,193.88296920829
18.124999999999,0.017527969065148,193.8904533289
18.137499999999,0.017540236234449,193.89793578641
18.149999999999,0.017552503637244,193.90541658199
18.162499999999,0.017564771273513,193.91289571684
18.174999999999,0.017577039143238,193.92037319216
18.187499999999,0.0175893072464,193.92784900912
18.199999999999,0.017601575582977,193.93532316892
18.212499999999,0.017613844152952,193.94279567272
18.224999999999,0.017626112956305,193.95026652172
18.237499999999,0.017638381993017,193.95773571708
18.249999999999,0.017650651263068,193.96520325999
18.262499999999,0.017662920766439,193.9726691516
18.274999999999,0.017675190503111,193.98013339309
18.287499999999,0.017687460473065,193.98759598563
18.299999999999,0.017699730676281,193.99505693037
18.312499999999,0.01771200111274,194.00251622848
18.324999999999,0.017724271782423,194.00997388112
18.337499999999,0.01773654268531,194.01742988943
18.349999999999,0.017748813821383,194.02488425458
18.362499999999,0.017761085190623,194.03233697771
18.374999999999,0.01777335679301,194.03978805998
18.387499999999,0.017785628628525,194.04723750252
18.399999999999,0.017797900697149,194.05468530649
18.412499999999,0.017810172998862,194.06213147301
18.424999999999,0.017822445533647,194.06957600324
18.437499999999,0.017834718301483,194.0770188983
18.449999999999,0.017846991302352,194.08446015932
18.462499999999,0.017859264536235,194.09189978745
18.474999999999,0.017871538003112,194.09933778381
18.487499999999,0.017883811702965,194.10677414952
18.499999999999,0.017896085635775,194.1142088857
18.512499999999,0.017908359801522,194.12164199349
18.524999999999,0.017920634200187,194.12907347399
18.537499999999,0.017932908831753,194.13650332833
18.549999999999,0.017945183696199,194.14393155761
18.562499999999,0.017957458793507,194.15135816296
18.574999999999,0.017969734123658,194.15878314547
18.587499999999,0.017982009686632,194.16620650626
18.599999999999,0.017994285482412,194.17362824643
18.612499999999,0.018006561510979,194.18104836708
18.624999999999,0.018018837772312,194.18846686932
18.637499999999,0.018031114266394,194.19588375424
18.649999999999,0.018043390993206,194.20329902293
18.662499999999,0.018055667952729,194.2107126765
18.674999999999,0.018067945144944,194.21812471602
18.687499999999,0.018080222569832,194.2255351426
18.699999999999,0.018092500227375,194.23294395731
18.712499999999,0.018104778117554,194.24035116124
18.724999999999,0.01811705624035,194.24775675547
18.737499999999,0.018129334595744,194.25516074108
18.749999999999,0.018141613183718,194.26256311915
18.762499999999,0.018153892004253,194.26996389076
18.774999999999,0.01816617105733,194.27736305697
18.787499999999,0.018178450342931,194.28476061886
18.799999999999,0.018190729861037,194.2921565775
18.812499999999,0.018203009611629,194.29955093394
18.824999999999,0.018215289594689,194.30694368927
18.837499999999,0.018227569810198,194.31433484453
18.849999999999,0.018239850258137,194.32172440079
18.862499999999,0.018252130938489,194.3291123591
18.874999999999,0.018264411851234,194.33649872053
18.887499999999,0.018276692996353,194.34388348612
18.899999999999,0.018288974373829,194.35126665692
18.912499999999,0.018301255983643,194.35864823399
18.924999999999,0.018313537825776,194.36602821837
18.937499999999,0.018325819900209,194.37340661111
18.949999999999,0.018338102206925,194.38078341324
18.962499999999,0.018350384745905,194.38815862582
18.974999999999,0.01836266751713,194.39553224987
18.987499999999,0.018374950520582,194.40290428643
18.999999999999,0.018387233756242,194.41027473654
19.012499999999,0.018399517224093,194.41764360123
19.024999999999,0.018411800924115,194.42501088153
19.037499999999,0.01842408485629,194.43237657847
19.049999999999,0.018436369020601,194.43974069308
19.062499999999,0.018448653417028,194.44710322637
19.074999999999,0.018460938045553,194.45446417937
19.087499999999,0.018473222906158,194.4618235531
19.099999999999,0.018485507998825,194.46918134858
19.112499999999,0.018497793323535,194.47653756682
19.124999999999,0.01851007888027,194.48389220884
19.137499999999,0.018522364669012,194.49124527564
19.149999999999,0.018534650689742,194.49859676825
19.162499999999,0.018546936942443,194.50594668766
19.174999999999,0.018559223427095,194.51329503488
19.187499999999,0.018571510143681,194.52064181092
19.199999999999,0.018583797092183,194.52798701678
19.212499999999,0.018596084272583,194.53533065345
19.224999999999,0.018608371684861,194.54267272194
19.237499999999,0.018620659329001,194.55001322324
19.249999999999,0.018632947204983,194.55735215834
19.262499999999,0.018645235312791,194.56468952825
19.274999999999,0.018657523652405,194.57202533394
19.287499999999,0.018669812223807,194.5793595764
19.299999999999,0.018682101026981,194.58669225663
19.312499999999,0.018694390061906,194.5940233756
19.324999999999,0.018706679328566,194.6013529343
19.337499999999,0.018718968826942,194.60868093371
19.349999999999,0.018731258557016,194.61600737481
19.362499999999,0.018743548518771,194.62333225858
19.374999999999,0.018755838712188,194.63065558598
19.387499999999,0.018768129137249,194.637977358
19.399999999999,0.018780419793936,194.6452975756
19.412499999999,0.018792710682232,194.65261623976
19.424999999999,0.018805001802118,194.65993335143
19.437499999999,0.018817293153576,194.66724891159
19.449999999999,0.018829584736589,194.6745629212
19.462499999999,0.018841876551139,194.68187538123
19.474999999999,0.018854168597207,194.68918629263
19.487499999999,0.018866460874776,194.69649565635
19.499999999999,0.018878753383827,194.70380347337
19.512499999999,0.018891046124344,194.71110974463
19.524999999999,0.018903339096308,194.71841447108
19.537499999999,0.018915632299701,194.72571765368
19.549999999999,0.018927925734506,194.73301929337
19.562499999999,0.018940219400705,194.74031939111
19.574999999999,0.018952513298279,194.74761794784
19.587499999999,0.018964807427212,194.75491496449
19.599999999999,0.018977101787485,194.76221044203
19.612499999999,0.018989396379081,194.76950438138
19.624999999999,0.019001691201981,194.77679678348
19.637499999999,0.019013986256169,194.78408764928
19.649999999999,0.019026281541627,194.7913769797
19.662499999999,0.019038577058336,194.79866477568
19.674999999999,0.019050872806279,194.80595103816
19.687499999999,0.019063168785439,194.81323576805
19.699999999999,0.019075464995797,194.8205189663
19.712499999999,0.019087761437337,194.82780063383
19.724999999999,0.01910005811004,194.83508077155
19.737499999999,0.019112355013889,194.84235938041
19.749999999999,0.019124652148866,194.84963646131
19.762499999999,0.019136949514954,194.85691201517
19.774999999999,0.019149247112135,194.86418604293
19.787499999999,0.019161544940392,194.87145854548
19.799999999999,0.019173842999706,194.87872952375
19.812499999999,0.019186141290061,194.88599897866
19.824999999999,0.01919843981144,194.8932669111
19.837499999999,0.019210738563823,194.900533322
19.849999999999,0.019223037547194,194.90779821225
19.862499999999,0.019235336761536,194.91506158278
19.874999999999,0.019247636206831,194.92232343447
19.887499999999,0.019259935883061,194.92958376824
19.899999999999,0.01927223579021,194.93684258499
19.912499999999,0.019284535928259,194.94409988562
19.924999999999,0.019296836297191,194.95135567102
19.937499999999,0.019309136896989,194.9586099421
19.949999999999,0.019321437727636,194.96586269975
19.962499999999,0.019333738789113,194.97311394485
19.974999999999,0.019346040081405,194.98036367832
19.987499999999,0.019358341604492,194.98761190103
19.999999999999,0.019370643358359,194.99485861387
